User:   rasmus@AsusN550
Date:   Wed Dec 12 13:54:55 2018
Arch:   x86_64
Pid:    12945
Python: 3.6.3
gpaw:   /home/rasmus/anaconda3/lib/python3.6/site-packages/gpaw
_gpaw:  /home/rasmus/anaconda3/lib/python3.6/site-packages/
        _gpaw.cpython-36m-x86_64-linux-gnu.so
ase:    /home/rasmus/anaconda3/lib/python3.6/site-packages/ase (version 3.17.0)
numpy:  /home/rasmus/.local/lib/python3.6/site-packages/numpy (version 1.15.1)
scipy:  /home/rasmus/.local/lib/python3.6/site-packages/scipy (version 1.1.0)
units:  Angstrom and eV
cores:  1

Input parameters:
  kpts: [3 3 3]
  mode: {ecut: 500.0,
         name: pw}
  nbands: -50
  occupations: {name: fermi-dirac,
                width: 0.1}
  spinpol: True
  xc: PBE

System changes: positions, numbers, cell, pbc, initial_charges, initial_magmoms

Initialize ...

Fe-setup:
  name: Iron
  id: 37abbd8d6c3c35915a9b583b742da910
  Z: 26
  valence: 8
  core: 18
  charge: 0.0
  file: /usr/share/gpaw-setups/Fe.PBE.gz
  cutoffs: 1.06(comp), 2.06(filt), 2.67(core), lmax=2
  valence states:
                energy  radius
    4s(2.00)    -5.291   1.164
    4p(0.00)    -1.326   1.058
    3d(6.00)    -7.505   1.058
    *s          21.920   1.164
    *p          25.885   1.058
    *d          19.706   1.058

  Using partial waves for Fe as LCAO basis

Si-setup:
  name: Silicon
  id: ee77bee481871cc2cb65ac61239ccafa
  Z: 14
  valence: 4
  core: 10
  charge: 0.0
  file: /usr/share/gpaw-setups/Si.PBE.gz
  cutoffs: 1.06(comp), 1.86(filt), 2.06(core), lmax=2
  valence states:
                energy  radius
    3s(2.00)   -10.812   1.058
    3p(2.00)    -4.081   1.058
    *s          16.399   1.058
    *p          23.130   1.058
    *d           0.000   1.058

[...]

Reference energy: -42505.798850

Spin-polarized calculation.
Magnetic moment: 2.200000

Occupation numbers:
  Fermi-Dirac: width=0.1000 eV

Convergence criteria:
  Maximum total energy change: 0.0005 eV / electron
  Maximum integral of absolute density change: 0.0001 electrons
  Maximum integral of absolute eigenstate change: 4e-08 eV^2
  Maximum number of iterations: 333

Symmetries present (total): 2

  ( 1  0  0)  ( 1  0  0)
  ( 0  1  0)  ( 0  0  1)
  ( 0  0  1)  ( 0  1  0)

27 k-points: 3 x 3 x 3 Monkhorst-Pack grid
10 k-points in the irreducible part of the Brillouin zone
       k-points in crystal coordinates                weights
   0:     0.00000000    0.00000000    0.00000000          1/27
   1:     0.00000000    0.33333333   -0.33333333          2/27
   2:     0.00000000    0.33333333    0.00000000          4/27
   3:     0.00000000    0.33333333    0.33333333          2/27
   4:     0.33333333   -0.33333333   -0.33333333          2/27
   5:     0.33333333    0.00000000   -0.33333333          4/27
   6:     0.33333333    0.00000000    0.00000000          2/27
   7:     0.33333333    0.33333333   -0.33333333          4/27
   8:     0.33333333    0.33333333    0.00000000          4/27
   9:     0.33333333    0.33333333    0.33333333          2/27

Wave functions: Plane wave expansion
  Cutoff energy: 500.000 eV
  Number of coefficients (min, max): 594, 625
  Pulay-stress correction: 0.000000 eV/Ang^3 (de/decut=0.000000)
  Using FFTW library
  ScaLapack parameters: grid=1x1, blocksize=None

Eigensolver
   Davidson(niter=1, smin=None, normalize=True)

Densities:
  Coarse grid: 21*10*10 grid
  Fine grid: 42*20*20 grid
  Total Charge: 0.000000

Density mixing:
  Method: sum
  Backend: pulay
  Linear mixing parameter: 0.05
  Mixing with 5 old densities
  Damping of long wave oscillations: 50

Hamiltonian:
  XC and Coulomb potentials evaluated on a 42*20*20 grid
  Using the PBE Exchange-Correlation functional

Total number of cores used: 1

Number of atoms: 2
Number of atomic orbitals: 13
Number of bands in calculation: 57
Bands to converge: occupied states only
Number of valence electrons: 12

... initialized

Initializing position-dependent things.

Density initialized from atomic densities
Creating initial wave functions:
  13 bands from LCAO basis set
  44 bands from random numbers

        Fe

[...]

Positions:
   0 Fe    -1.439444    1.417882    1.417882    ( 0.0000,  0.0000,  2.2000)
   1 Si     0.000000    0.000003    0.000003    ( 0.0000,  0.0000,  0.0000)

Unit cell:
           periodic     x           y           z      points  spacing
  1. axis:    yes   -2.878889    2.835759    2.835759    21     0.1910
  2. axis:    yes    1.439462   -1.459697    1.459716    10     0.2035
  3. axis:    yes    1.439462    1.459716   -1.459697    10     0.2035

  Lengths:   4.936705   2.516652   2.516652
  Angles:  110.223858 109.484316 109.484316

Effective grid spacing dv^(1/3) = 0.2247

                     log10-error:    total        iterations:
           time      wfs    density  energy       fermi  poisson  magmom
iter:   1  13:55:01  +4.97   +inf   -14.312608    3               +1.6917
iter:   2  13:55:03  -0.29   +inf   -14.362475    3               +1.6920
iter:   3  13:55:05  -1.52   +inf   -14.364687    2               +1.6920
iter:   4  13:55:09  -2.10  -1.25   -14.334885    4               +1.7139
iter:   5  13:55:12  -2.36  -1.30   -14.326847    31              +1.8981
iter:   6  13:55:15  -1.62  -1.42   -14.333338    32              +1.8317
iter:   7  13:55:17  -2.67  -1.72   -14.359448    3               +1.8512
iter:   8  13:55:20  -2.07  -1.90   -14.377867    30              +1.9087
iter:   9  13:55:23  -3.48  -1.91   -14.362458    3               +1.8806
iter:  10  13:55:26  -4.55  -2.60   -14.362453    2               +1.8729
iter:  11  13:55:28  -4.32  -2.75   -14.363225    2               +1.8736
iter:  12  13:55:31  -5.24  -3.16   -14.363178    2               +1.8713
iter:  13  13:55:34  -6.44  -3.50   -14.363184    2               +1.8709
iter:  14  13:55:36  -5.38  -3.53   -14.363258    2               +1.8710
iter:  15  13:55:39  -6.10  -3.56   -14.363244    2               +1.8701
iter:  16  13:55:42  -6.82  -4.18   -14.363259    2               +1.8700
iter:  17  13:55:46  -7.64  -4.23   -14.363263    2               +1.8698

Converged after 17 iterations.

Dipole moment: (-0.000002, -0.000058, -0.000058) |e|*Ang

Total magnetic moment: (0.000000, 0.000000, 1.870637)
Local magnetic moments:
   0 Fe ( 0.000000,  0.000000,  1.959578)
   1 Si ( 0.000000,  0.000000, -0.022456)

Energy contributions relative to reference atoms: (reference = -42505.798850)

Kinetic:        +15.510538
Potential:      -11.284432
External:        +0.000000
XC:             -18.629275
Entropy (-ST):   -0.051050
Local:           +0.065431
Free energy:    -14.388788
Extrapolated:   -14.363263

Spin contamination: 0.102865 electrons
Fermi level: 11.20307

Warning: Showing only first 2 kpts
                      Up                     Down
 Kpt  Band  Eigenvalues  Occupancy  Eigenvalues  Occupancy
  0     4      9.24073    0.03704     11.16526    0.02198
  0     5      9.52213    0.03704     11.51538    0.00156
  0     6      9.64567    0.03704     12.15206    0.00000
  0     7     12.41359    0.00000     13.43005    0.00000

  1     4      8.88640    0.07407     10.40577    0.07405
  1     5      9.78492    0.07407     11.55606    0.00211
  1     6     12.13875    0.00001     13.12381    0.00000
  1     7     13.14928    0.00000     13.79347    0.00000

Forces in eV/Ang:
  0 Fe   -0.00000    0.00000    0.00000
  1 Si    0.00000   -0.00000   -0.00000

Stress tensor:
    -0.000078    -0.000063    -0.000063
    -0.000063    -0.002391     0.145819
    -0.000063     0.145819    -0.002391
Writing to fesi_8atoms_id2.gpw (mode='')

System changes: positions, cell

Initialize ...

Fe-setup:
  name: Iron
  id: 37abbd8d6c3c35915a9b583b742da910
  Z: 26
  valence: 8
  core: 18
  charge: 0.0
  file: /usr/share/gpaw-setups/Fe.PBE.gz
  cutoffs: 1.06(comp), 2.06(filt), 2.67(core), lmax=2
  valence states:
                energy  radius
    4s(2.00)    -5.291   1.164
    4p(0.00)    -1.326   1.058
    3d(6.00)    -7.505   1.058
    *s          21.920   1.164
    *p          25.885   1.058
    *d          19.706   1.058

[...]

Si-setup:
  name: Silicon
  id: ee77bee481871cc2cb65ac61239ccafa
  Z: 14
  valence: 4
  core: 10
  charge: 0.0
  file: /usr/share/gpaw-setups/Si.PBE.gz
  cutoffs: 1.06(comp), 1.86(filt), 2.06(core), lmax=2
  valence states:
                energy  radius
    3s(2.00)   -10.812   1.058
    3p(2.00)    -4.081   1.058
    *s          16.399   1.058
    *p          23.130   1.058
    *d           0.000   1.058

  Using partial waves for Si as LCAO basis

Reference energy: -42505.798850

Spin-polarized calculation.
Magnetic moment: 2.200000

Occupation numbers:
  Fermi-Dirac: width=0.1000 eV

Convergence criteria:
  Maximum total energy change: 0.0005 eV / electron
  Maximum integral of absolute density change: 0.0001 electrons
  Maximum integral of absolute eigenstate change: 4e-08 eV^2
  Maximum number of iterations: 333

Symmetries present (total): 2

  ( 1  0  0)  ( 1  0  0)
  ( 0  1  0)  ( 0  0  1)
  ( 0  0  1)  ( 0  1  0)

27 k-points: 3 x 3 x 3 Monkhorst-Pack grid
10 k-points in the irreducible part of the Brillouin zone
       k-points in crystal coordinates                weights
   0:     0.00000000    0.00000000    0.00000000          1/27
   1:     0.00000000    0.33333333   -0.33333333          2/27
   2:     0.00000000    0.33333333    0.00000000          4/27
   3:     0.00000000    0.33333333    0.33333333          2/27
   4:     0.33333333   -0.33333333   -0.33333333          2/27
   5:     0.33333333    0.00000000   -0.33333333          4/27
   6:     0.33333333    0.00000000    0.00000000          2/27
   7:     0.33333333    0.33333333   -0.33333333          4/27
   8:     0.33333333    0.33333333    0.00000000          4/27
   9:     0.33333333    0.33333333    0.33333333          2/27

Wave functions: Plane wave expansion
  Cutoff energy: 500.000 eV
  Number of coefficients (min, max): 598, 613
  Pulay-stress correction: 0.000000 eV/Ang^3 (de/decut=0.000000)
  Using FFTW library
  ScaLapack parameters: grid=1x1, blocksize=None

Eigensolver
   Davidson(niter=1, smin=None, normalize=True)

Densities:
  Coarse grid: 20*10*10 grid
  Fine grid: 40*20*20 grid
  Total Charge: 0.000000

Density mixing:
  Method: sum
  Backend: pulay
  Linear mixing parameter: 0.05
  Mixing with 5 old densities
  Damping of long wave oscillations: 50

Hamiltonian:
  XC and Coulomb potentials evaluated on a 40*20*20 grid
  Using the PBE Exchange-Correlation functional

Total number of cores used: 1

Number of atoms: 2
Number of atomic orbitals: 13
Number of bands in calculation: 57
Bands to converge: occupied states only
Number of valence electrons: 12

... initialized

Initializing position-dependent things.

Density initialized from atomic densities
Creating initial wave functions:
  13 bands from LCAO basis set
  44 bands from random numbers

[...]

          Si

Positions:
   0 Fe    -1.439439    1.400564    1.400564    ( 0.0000,  0.0000,  2.2000)
   1 Si     0.000000    0.000003    0.000003    ( 0.0000,  0.0000,  0.0000)

Unit cell:
           periodic     x           y           z      points  spacing
  1. axis:    yes   -2.878877    2.801122    2.801122    20     0.1981
  2. axis:    yes    1.439472   -1.478105    1.478139    10     0.2035
  3. axis:    yes    1.439472    1.478139   -1.478105    10     0.2035

  Lengths:   4.896989   2.538064   2.538064
  Angles:  110.896061 109.476168 109.476168

Effective grid spacing dv^(1/3) = 0.2284

                     log10-error:    total        iterations:
           time      wfs    density  energy       fermi  poisson  magmom
iter:   1  13:55:53  +4.97   +inf   -14.386954    4               +1.6579
Timing:                              incl.     excl.
Forces:                              0.120     0.120   0.2% |
Hamiltonian:                         0.568     0.001   0.0% |
 Atomic:                             0.509     0.009   0.0% |
  XC Correction:                     0.500     0.500   0.9% |
 Calculate atomic Hamiltonians:      0.002     0.002   0.0% |
 Communicate:                        0.000     0.000   0.0% |
 Initialize Hamiltonian:             0.000     0.000   0.0% |
 Poisson:                            0.000     0.000   0.0% |
 XC 3D grid:                         0.055     0.055   0.1% |
LCAO initialization:                 1.173     0.274   0.5% |
 LCAO eigensolver:                   0.474     0.001   0.0% |
  Calculate projections:             0.001     0.001   0.0% |
  DenseAtomicCorrection:             0.003     0.003   0.0% |
  Distribute overlap matrix:         0.000     0.000   0.0% |
  Orbital Layouts:                   0.004     0.004   0.0% |
  Potential matrix:                  0.383     0.383   0.7% |
  Sum over cells:                    0.082     0.082   0.1% |
 LCAO to grid:                       0.175     0.175   0.3% |
 Set positions (LCAO WFS):           0.250     0.001   0.0% |
  Basic WFS set positions:           0.000     0.000   0.0% |
  Basis functions set positions:     0.000     0.000   0.0% |
  TCI: Calculate S, T, P:            0.249     0.249   0.4% |
PWDescriptor:                        0.004     0.004   0.0% |
SCF-cycle:                          54.241     0.217   0.4% |
 Davidson:                          44.049     9.575  16.3% |------|
  Subspace diag:                    13.275     0.075   0.1% |
   calc_h_matrix:                    7.738     7.738  13.2% |----|
   diagonalize:                      1.244     1.244   2.1% ||
   rotate_psi:                       4.218     4.218   7.2% |--|
  calc. matrices:                   11.967    11.967  20.4% |-------|
  diagonalize:                       4.935     4.935   8.4% |--|
  rotate_psi:                        4.296     4.296   7.3% |--|
 Density:                            1.802     0.000   0.0% |
  Atomic density matrices:           0.023     0.023   0.0% |
  Mix:                               0.037     0.037   0.1% |
  Multipole moments:                 0.002     0.002   0.0% |
  Pseudo density:                    1.740     1.732   3.0% ||
   Symmetrize density:               0.008     0.008   0.0% |
 Hamiltonian:                        4.554     0.005   0.0% |
  Atomic:                            4.033     0.148   0.3% |
   XC Correction:                    3.885     3.885   6.6% |--|
  Calculate atomic Hamiltonians:     0.017     0.017   0.0% |
  Communicate:                       0.000     0.000   0.0% |
  Poisson:                           0.002     0.002   0.0% |
  XC 3D grid:                        0.497     0.497   0.8% |
 Orthonormalize:                     3.619     0.005   0.0% |
  calc_s_matrix:                     0.130     0.130   0.2% |
  inverse-cholesky:                  3.139     3.139   5.4% |-|
  projections:                       0.128     0.128   0.2% |
  rotate_psi_s:                      0.216     0.216   0.4% |
Set symmetry:                        0.003     0.003   0.0% |
Stress:                              1.129     0.000   0.0% |
 Stress tensor:                      1.129     1.129   1.9% ||
Other:                               1.432     1.432   2.4% ||
Total:                                        58.670 100.0%

Date: Wed Dec 12 13:55:53 2018