User:   rasmus@AsusN550
Date:   Wed Dec 12 14:43:27 2018
Arch:   x86_64
Pid:    14889
Python: 3.6.3
gpaw:   /home/rasmus/anaconda3/lib/python3.6/site-packages/gpaw
_gpaw:  /home/rasmus/anaconda3/lib/python3.6/site-packages/
        _gpaw.cpython-36m-x86_64-linux-gnu.so
ase:    /home/rasmus/anaconda3/lib/python3.6/site-packages/ase (version 3.17.0)
numpy:  /home/rasmus/.local/lib/python3.6/site-packages/numpy (version 1.15.1)
scipy:  /home/rasmus/.local/lib/python3.6/site-packages/scipy (version 1.1.0)
units:  Angstrom and eV
cores:  1

Input parameters:
  kpts: [3 3 3]
  mode: {ecut: 500.0,
         name: pw}
  nbands: -50
  occupations: {name: fermi-dirac,
                width: 0.1}
  spinpol: True
  xc: PBE

System changes: positions, numbers, cell, pbc, initial_charges, initial_magmoms

Initialize ...

Fe-setup:
  name: Iron
  id: 37abbd8d6c3c35915a9b583b742da910
  Z: 26
  valence: 8
  core: 18
  charge: 0.0
  file: /usr/share/gpaw-setups/Fe.PBE.gz
  cutoffs: 1.06(comp), 2.06(filt), 2.67(core), lmax=2
  valence states:
                energy  radius
    4s(2.00)    -5.291   1.164
    4p(0.00)    -1.326   1.058
    3d(6.00)    -7.505   1.058
    *s          21.920   1.164
    *p          25.885   1.058
    *d          19.706   1.058

  Using partial waves for Fe as LCAO basis

Si-setup:
  name: Silicon
  id: ee77bee481871cc2cb65ac61239ccafa
  Z: 14
  valence: 4
  core: 10
  charge: 0.0
  file: /usr/share/gpaw-setups/Si.PBE.gz
  cutoffs: 1.06(comp), 1.86(filt), 2.06(core), lmax=2
  valence states:
                energy  radius
    3s(2.00)   -10.812   1.058
    3p(2.00)    -4.081   1.058
    *s          16.399   1.058
    *p          23.130   1.058
    *d           0.000   1.058

[...]

Reference energy: -42505.798850

Spin-polarized calculation.
Magnetic moment: 2.200000

Occupation numbers:
  Fermi-Dirac: width=0.1000 eV

Convergence criteria:
  Maximum total energy change: 0.0005 eV / electron
  Maximum integral of absolute density change: 0.0001 electrons
  Maximum integral of absolute eigenstate change: 4e-08 eV^2
  Maximum number of iterations: 333

Symmetries present (total): 2

  ( 1  0  0)  ( 1  0  0)
  ( 0  1  0)  ( 0  0  1)
  ( 0  0  1)  ( 0  1  0)

27 k-points: 3 x 3 x 3 Monkhorst-Pack grid
10 k-points in the irreducible part of the Brillouin zone
       k-points in crystal coordinates                weights
   0:     0.00000000    0.00000000    0.00000000          1/27
   1:     0.00000000    0.33333333   -0.33333333          2/27
   2:     0.00000000    0.33333333    0.00000000          4/27
   3:     0.00000000    0.33333333    0.33333333          2/27
   4:     0.33333333   -0.33333333   -0.33333333          2/27
   5:     0.33333333    0.00000000   -0.33333333          4/27
   6:     0.33333333    0.00000000    0.00000000          2/27
   7:     0.33333333    0.33333333   -0.33333333          4/27
   8:     0.33333333    0.33333333    0.00000000          4/27
   9:     0.33333333    0.33333333    0.33333333          2/27

Wave functions: Plane wave expansion
  Cutoff energy: 500.000 eV
  Number of coefficients (min, max): 593, 608
  Pulay-stress correction: 0.000000 eV/Ang^3 (de/decut=0.000000)
  Using FFTW library
  ScaLapack parameters: grid=1x1, blocksize=None

Eigensolver
   Davidson(niter=1, smin=None, normalize=True)

Densities:
  Coarse grid: 20*10*10 grid
  Fine grid: 40*20*20 grid
  Total Charge: 0.000000

Density mixing:
  Method: sum
  Backend: pulay
  Linear mixing parameter: 0.05
  Mixing with 5 old densities
  Damping of long wave oscillations: 50

Hamiltonian:
  XC and Coulomb potentials evaluated on a 40*20*20 grid
  Using the PBE Exchange-Correlation functional

Total number of cores used: 1

Number of atoms: 2
Number of atomic orbitals: 13
Number of bands in calculation: 57
Bands to converge: occupied states only
Number of valence electrons: 12

... initialized

Initializing position-dependent things.

Density initialized from atomic densities
Creating initial wave functions:
  13 bands from LCAO basis set
  44 bands from random numbers

        Fe

[...]

Positions:
   0 Fe    -1.438383    1.376898    1.376898    ( 0.0000,  0.0000,  2.2000)
   1 Si     0.000000    0.000003    0.000003    ( 0.0000,  0.0000,  0.0000)

Unit cell:
           periodic     x           y           z      points  spacing
  1. axis:    yes   -2.876765    2.753790    2.753790    20     0.1947
  2. axis:    yes    1.438435   -1.502849    1.502901    10     0.2032
  3. axis:    yes    1.438435    1.502901   -1.502849    10     0.2032

  Lengths:   4.841745   2.566391   2.566391
  Angles:  111.820707 109.451456 109.451456

Effective grid spacing dv^(1/3) = 0.2283

                     log10-error:    total        iterations:
           time      wfs    density  energy       fermi  poisson  magmom
iter:   1  14:43:33  +4.97   +inf   -14.472855    2               +1.5773
iter:   2  14:43:36  -0.27   +inf   -14.524576    2               +1.5758
iter:   3  14:43:39  -1.51   +inf   -14.526826    2               +1.5757
iter:   4  14:43:42  -2.13  -1.23   -14.503240    4               +1.5742
iter:   5  14:43:45  -2.29  -1.27   -14.507536    32              +1.8043
iter:   6  14:43:48  -1.44  -1.40   -14.535831    30              +1.6735
iter:   7  14:43:51  -2.80  -1.57   -14.518335    4               +1.7684
iter:   8  14:43:54  -2.44  -1.92   -14.533201    3               +1.8171
iter:   9  14:43:56  -3.23  -1.92   -14.526117    3               +1.8097
iter:  10  14:43:59  -4.61  -2.47   -14.525881    3               +1.8038
iter:  11  14:44:02  -4.23  -2.68   -14.527533    3               +1.8094
iter:  12  14:44:05  -4.99  -3.27   -14.527542    3               +1.8089
iter:  13  14:44:08  -6.43  -3.39   -14.527547    2               +1.8089
iter:  14  14:44:10  -5.97  -3.40   -14.527634    2               +1.8096
iter:  15  14:44:13  -5.68  -3.52   -14.527795    2               +1.8108
iter:  16  14:44:16  -5.80  -3.61   -14.527971    2               +1.8121
iter:  17  14:44:18  -6.27  -3.84   -14.528006    2               +1.8123
iter:  18  14:44:21  -6.80  -3.94   -14.528037    2               +1.8127
iter:  19  14:44:24  -7.67  -4.10   -14.528039    2               +1.8128

Converged after 19 iterations.

Dipole moment: (-0.000003, -0.000054, -0.000054) |e|*Ang

Total magnetic moment: (0.000000, 0.000000, 1.811811)
Local magnetic moments:
   0 Fe ( 0.000000,  0.000000,  1.899074)
   1 Si ( 0.000000,  0.000000, -0.027150)

Energy contributions relative to reference atoms: (reference = -42505.798850)

Kinetic:        +15.284454
Potential:      -11.252423
External:        +0.000000
XC:             -18.606505
Entropy (-ST):   -0.051293
Local:           +0.072081
Free energy:    -14.553685
Extrapolated:   -14.528039

Spin contamination: 0.099806 electrons
Fermi level: 11.13923

Warning: Showing only first 2 kpts
                      Up                     Down
 Kpt  Band  Eigenvalues  Occupancy  Eigenvalues  Occupancy
  0     4      9.04165    0.03704     10.92147    0.03327
  0     5      9.45525    0.03704     11.23333    0.01040
  0     6      9.57969    0.03704     11.99634    0.00001
  0     7     12.96559    0.00000     13.94365    0.00000

  1     4      8.89886    0.07407     10.26544    0.07406
  1     5      9.71077    0.07407     11.46462    0.00275
  1     6     12.16835    0.00000     13.03445    0.00000
  1     7     12.96925    0.00000     13.67249    0.00000

Forces in eV/Ang:
  0 Fe    0.00000    0.00000    0.00000
  1 Si    0.00000    0.00000    0.00000

Stress tensor:
     0.011415    -0.000026    -0.000026
    -0.000026    -0.006151     0.091411
    -0.000026     0.091411    -0.006151
Writing to fesi_8atoms_id2.gpw (mode='')

System changes: positions, cell

Initialize ...

Fe-setup:
  name: Iron
  id: 37abbd8d6c3c35915a9b583b742da910
  Z: 26
  valence: 8
  core: 18
  charge: 0.0
  file: /usr/share/gpaw-setups/Fe.PBE.gz
  cutoffs: 1.06(comp), 2.06(filt), 2.67(core), lmax=2
  valence states:
                energy  radius
    4s(2.00)    -5.291   1.164
    4p(0.00)    -1.326   1.058
    3d(6.00)    -7.505   1.058
    *s          21.920   1.164
    *p          25.885   1.058
    *d          19.706   1.058

[...]

Si-setup:
  name: Silicon
  id: ee77bee481871cc2cb65ac61239ccafa
  Z: 14
  valence: 4
  core: 10
  charge: 0.0
  file: /usr/share/gpaw-setups/Si.PBE.gz
  cutoffs: 1.06(comp), 1.86(filt), 2.06(core), lmax=2
  valence states:
                energy  radius
    3s(2.00)   -10.812   1.058
    3p(2.00)    -4.081   1.058
    *s          16.399   1.058
    *p          23.130   1.058
    *d           0.000   1.058

  Using partial waves for Si as LCAO basis

Reference energy: -42505.798850

Spin-polarized calculation.
Magnetic moment: 2.200000

Occupation numbers:
  Fermi-Dirac: width=0.1000 eV

Convergence criteria:
  Maximum total energy change: 0.0005 eV / electron
  Maximum integral of absolute density change: 0.0001 electrons
  Maximum integral of absolute eigenstate change: 4e-08 eV^2
  Maximum number of iterations: 333

Symmetries present (total): 2

  ( 1  0  0)  ( 1  0  0)
  ( 0  1  0)  ( 0  0  1)
  ( 0  0  1)  ( 0  1  0)

27 k-points: 3 x 3 x 3 Monkhorst-Pack grid
10 k-points in the irreducible part of the Brillouin zone
       k-points in crystal coordinates                weights
   0:     0.00000000    0.00000000    0.00000000          1/27
   1:     0.00000000    0.33333333   -0.33333333          2/27
   2:     0.00000000    0.33333333    0.00000000          4/27
   3:     0.00000000    0.33333333    0.33333333          2/27
   4:     0.33333333   -0.33333333   -0.33333333          2/27
   5:     0.33333333    0.00000000   -0.33333333          4/27
   6:     0.33333333    0.00000000    0.00000000          2/27
   7:     0.33333333    0.33333333   -0.33333333          4/27
   8:     0.33333333    0.33333333    0.00000000          4/27
   9:     0.33333333    0.33333333    0.33333333          2/27

Wave functions: Plane wave expansion
  Cutoff energy: 500.000 eV
  Number of coefficients (min, max): 595, 608
  Pulay-stress correction: 0.000000 eV/Ang^3 (de/decut=0.000000)
  Using FFTW library
  ScaLapack parameters: grid=1x1, blocksize=None

Eigensolver
   Davidson(niter=1, smin=None, normalize=True)

Densities:
  Coarse grid: 20*10*10 grid
  Fine grid: 40*20*20 grid
  Total Charge: 0.000000

Density mixing:
  Method: sum
  Backend: pulay
  Linear mixing parameter: 0.05
  Mixing with 5 old densities
  Damping of long wave oscillations: 50

Hamiltonian:
  XC and Coulomb potentials evaluated on a 40*20*20 grid
  Using the PBE Exchange-Correlation functional

Total number of cores used: 1

Number of atoms: 2
Number of atomic orbitals: 13
Number of bands in calculation: 57
Bands to converge: occupied states only
Number of valence electrons: 12

... initialized

Initializing position-dependent things.

Density initialized from atomic densities
Creating initial wave functions:
  13 bands from LCAO basis set
  44 bands from random numbers

[...]

          Si

Positions:
   0 Fe    -1.436980    1.366911    1.366911    ( 0.0000,  0.0000,  2.2000)
   1 Si     0.000000    0.000003    0.000003    ( 0.0000,  0.0000,  0.0000)

Unit cell:
           periodic     x           y           z      points  spacing
  1. axis:    yes   -2.873960    2.733816    2.733816    20     0.1933
  2. axis:    yes    1.437039   -1.515316    1.515374    10     0.2031
  3. axis:    yes    1.437039    1.515374   -1.515316    10     0.2031

  Lengths:   4.817380   2.580237   2.580237
  Angles:  112.311039 109.405261 109.405261

Effective grid spacing dv^(1/3) = 0.2283

                     log10-error:    total        iterations:
           time      wfs    density  energy       fermi  poisson  magmom
iter:   1  14:44:32  +4.97   +inf   -14.507497    31              +1.5383
iter:   2  14:44:34  -0.26   +inf   -14.559956    2               +1.5357
iter:   3  14:44:36  -1.47   +inf   -14.562510    2               +1.5357
iter:   4  14:44:39  -2.12  -1.22   -14.541374    4               +1.5194
iter:   5  14:44:42  -2.26  -1.26   -14.548573    30              +1.7663
Timing:                              incl.     excl.
Forces:                              0.120     0.120   0.2% |
Hamiltonian:                         0.569     0.001   0.0% |
 Atomic:                             0.510     0.017   0.0% |
  XC Correction:                     0.493     0.493   0.7% |
 Calculate atomic Hamiltonians:      0.002     0.002   0.0% |
 Communicate:                        0.000     0.000   0.0% |
 Initialize Hamiltonian:             0.000     0.000   0.0% |
 Poisson:                            0.000     0.000   0.0% |
 XC 3D grid:                         0.056     0.056   0.1% |
LCAO initialization:                 1.161     0.271   0.4% |
 LCAO eigensolver:                   0.472     0.001   0.0% |
  Calculate projections:             0.001     0.001   0.0% |
  DenseAtomicCorrection:             0.003     0.003   0.0% |
  Distribute overlap matrix:         0.000     0.000   0.0% |
  Orbital Layouts:                   0.004     0.004   0.0% |
  Potential matrix:                  0.382     0.382   0.5% |
  Sum over cells:                    0.081     0.081   0.1% |
 LCAO to grid:                       0.169     0.169   0.2% |
 Set positions (LCAO WFS):           0.249     0.000   0.0% |
  Basic WFS set positions:           0.000     0.000   0.0% |
  Basis functions set positions:     0.000     0.000   0.0% |
  TCI: Calculate S, T, P:            0.248     0.248   0.3% |
PWDescriptor:                        0.004     0.004   0.0% |
SCF-cycle:                          70.830     0.257   0.3% |
 Davidson:                          57.936    12.810  17.0% |------|
  Subspace diag:                    16.939     0.114   0.2% |
   calc_h_matrix:                    9.351     9.351  12.4% |----|
   diagonalize:                      1.729     1.729   2.3% ||
   rotate_psi:                       5.745     5.745   7.6% |--|
  calc. matrices:                   16.091    16.091  21.4% |--------|
  diagonalize:                       6.407     6.407   8.5% |--|
  rotate_psi:                        5.689     5.689   7.6% |--|
 Density:                            2.484     0.001   0.0% |
  Atomic density matrices:           0.030     0.030   0.0% |
  Mix:                               0.048     0.048   0.1% |
  Multipole moments:                 0.002     0.002   0.0% |
  Pseudo density:                    2.404     2.393   3.2% ||
   Symmetrize density:               0.011     0.011   0.0% |
 Hamiltonian:                        5.812     0.006   0.0% |
  Atomic:                            5.139     0.210   0.3% |
   XC Correction:                    4.929     4.929   6.6% |--|
  Calculate atomic Hamiltonians:     0.021     0.021   0.0% |
  Communicate:                       0.000     0.000   0.0% |
  Poisson:                           0.002     0.002   0.0% |
  XC 3D grid:                        0.643     0.643   0.9% |
 Orthonormalize:                     4.340     0.005   0.0% |
  calc_s_matrix:                     0.125     0.125   0.2% |
  inverse-cholesky:                  3.838     3.838   5.1% |-|
  projections:                       0.152     0.152   0.2% |
  rotate_psi_s:                      0.220     0.220   0.3% |
Set symmetry:                        0.003     0.003   0.0% |
Stress:                              1.081     0.000   0.0% |
 Stress tensor:                      1.081     1.081   1.4% ||
Other:                               1.367     1.367   1.8% ||
Total:                                        75.134 100.0%

Date: Wed Dec 12 14:44:42 2018