User:   rasmusat@c25-6.local
Date:   Sun Dec 30 21:18:56 2018
Arch:   x86_64
Pid:    8850
Python: 2.7.12
gpaw:   /home/davidkl/.local/lib/python2.7/site-packages/gpaw
_gpaw:  /home/davidkl/.local/bin/gpaw-python
ase:    /home/davidkl/.local/lib/python2.7/site-packages/ase (version 3.16.2)
units:  Angstrom and eV
cores:  32

Input parameters:
  kpts: {density: 1.37,
         even: True}
  mode: {ecut: 600.0,
         name: pw}
  nbands: -100
  occupations: {name: fermi-dirac,
                width: 0.1}
  spinpol: True
  xc: PBE

System changes: positions, numbers, cell, pbc, initial_charges, initial_magmoms

Initialize ...

Fe-setup:
  name: Iron
  id: 37abbd8d6c3c35915a9b583b742da910
  Z: 26
  valence: 8
  core: 18
  charge: 0.0
  file: /home/davidkl/gpaw-setups-0.9.20000/Fe.PBE.gz
  cutoffs: 1.06(comp), 2.06(filt), 2.67(core), lmax=2
  valence states:
                energy  radius
    4s(2.00)    -5.291   1.164
    4p(0.00)    -1.326   1.058
    3d(6.00)    -7.505   1.058
    *s          21.920   1.164
    *p          25.885   1.058
    *d          19.706   1.058

  Using partial waves for Fe as LCAO basis

Si-setup:
  name: Silicon
  id: ee77bee481871cc2cb65ac61239ccafa
  Z: 14
  valence: 4
  core: 10
  charge: 0.0
  file: /home/davidkl/gpaw-setups-0.9.20000/Si.PBE.gz
  cutoffs: 1.06(comp), 1.86(filt), 2.06(core), lmax=2
  valence states:
                energy  radius
    3s(2.00)   -10.812   1.058
    3p(2.00)    -4.081   1.058
    *s          16.399   1.058
    *p          23.130   1.058
    *d           0.000   1.058

[...]

Reference energy: -116556.974701

Spin-polarized calculation.
Magnetic moment:  4.400000

Occupation numbers:
  Fermi-Dirac: width=0.1000 eV

Convergence criteria:
  Maximum total energy change: 0.0005 eV / electron
  Maximum integral of absolute density change: 0.0001 electrons
  Maximum integral of absolute eigenstate change: 4e-08 eV^2
  Maximum number of iterations: 333

Symmetries present (total): 2

  ( 1  0  0)  ( 0  1  0)
  ( 0  1  0)  ( 1  0  0)
  ( 0  0  1)  ( 0  0  1)

32 k-points: 4 x 4 x 2 Monkhorst-Pack grid
10 k-points in the irreducible part of the Brillouin zone
       k-points in crystal coordinates                weights
   0:     0.12500000   -0.12500000    0.25000000          4/32
   1:     0.12500000    0.12500000   -0.25000000          2/32
   2:     0.12500000    0.12500000    0.25000000          2/32
   3:     0.37500000   -0.37500000    0.25000000          4/32
   4:     0.37500000   -0.12500000   -0.25000000          4/32
   5:     0.37500000   -0.12500000    0.25000000          4/32
   6:     0.37500000    0.12500000   -0.25000000          4/32
   7:     0.37500000    0.12500000    0.25000000          4/32
   8:     0.37500000    0.37500000   -0.25000000          2/32
   9:     0.37500000    0.37500000    0.25000000          2/32

Wave functions: Plane wave expansion
  Cutoff energy: 600.000 eV
  Number of coefficients (min, max): 3327, 3353
  Pulay-stress correction: 0.000000 eV/Ang^3 (de/decut=0.000000)
  Using FFTW library
  Eigensolver: None  MatrixOperator buffer_size: default value or
                              see value of nblock in input file
Diagonalizer layout: Serial LAPACKOrthonormalizer layout: Serial LAPACK

Davidson(niter=1, smin=None, normalize=True)

Densities:
  Coarse grid: 24*24*24 grid
  Fine grid: 48*48*48 grid
  Total Charge: 0.000000

Density mixing:
  Method: sum
  Backend: pulay
  Linear mixing parameter: 0.05
  Mixing with 5 old densities
  Damping of long wave oscillations: 50

Hamiltonian:
  XC and Coulomb potentials evaluated on a 48*48*48 grid
  Using the PBE Exchange-Correlation functional

Total number of cores used: 32
Parallelization over k-points and spin: 4
Parallelization over states: 8

Number of atoms: 8
Number of atomic orbitals: 42
Adjusting number of bands by +6 to match parallelization
Number of bands in calculation: 128
Bands to converge: occupied states only
Number of valence electrons: 40

... initialized

Initializing position-dependent things.

Density initialized from atomic densities
Creating initial wave functions:
  40 bands from LCAO basis set
  88 bands from random numbers

           Si
         Si     Si
             Sii
           Fe     Si
                Fe

Positions:
   0 Fe    -0.000912   -0.000912    0.000223
   1 Fe     1.684374    1.684374   -1.828221
   2 Si     1.160531   -1.416450    1.582282
   3 Si     2.845873    0.268044   -0.247056
   4 Si    -1.416450    1.160531    1.582282
   5 Si     0.268044    2.845873   -0.247056
   6 Si    -0.256457   -0.256457    3.164299
   7 Si     1.428271    1.428271    1.334023

Unit cell:
           periodic     x           y           z      points  spacing
  1. axis:    yes   -2.833457    2.320322    3.164345    24     0.1615
  2. axis:    yes    2.320322   -2.833457    3.164345    24     0.1615
  3. axis:    yes    3.369783    3.369783   -3.658336    24     0.1799

  Lengths:   4.839985   4.839985   6.007852
  Angles:  117.230873 117.230873  97.693348

Effective grid spacing dv^(1/3) = 0.1936

                     log10-error:    total        iterations:
           time      wfs    density  energy       fermi  poisson  magmom
iter:   1  21:19:01  +4.92   +inf   -47.964583    3               +2.2696
iter:   2  21:19:03  +0.07   +inf   -48.358971    3               +2.2672
iter:   3  21:19:05  -1.32   +inf   -48.373213    2               +2.2669
iter:   4  21:19:07  -1.63  -1.08   -47.657137    4               +2.3928
iter:   5  21:19:09  -1.88  -1.17   -47.526804    32              +2.7186
iter:   6  21:19:11  -0.90  -1.24   -47.709880    33              +2.3078
iter:   7  21:19:14  -2.37  -1.55   -47.658556    3               +2.4131
iter:   8  21:19:16  -2.60  -1.78   -47.640027    3               +2.2780
iter:   9  21:19:18  -2.70  -2.11   -47.639824    2               +2.1795
iter:  10  21:19:20  -3.81  -2.58   -47.649953    2               +2.0912
iter:  11  21:19:22  -4.24  -2.96   -47.652975    2               +2.0518
iter:  12  21:19:25  -4.78  -3.02   -47.653874    2               +2.0380
iter:  13  21:19:27  -4.87  -3.04   -47.656801    2               +2.0083
iter:  14  21:19:29  -4.35  -3.14   -47.662292    2               +1.9471
iter:  15  21:19:31  -5.07  -3.23   -47.664977    2               +1.9067
iter:  16  21:19:34  -4.42  -3.23   -47.663574    2               +1.9163
iter:  17  21:19:36  -3.75  -3.11   -47.670174    2               +1.8335
iter:  18  21:19:38  -4.31  -3.34   -47.670207    2               +1.8244
iter:  19  21:19:40  -5.52  -3.30   -47.670251    2               +1.8207
iter:  20  21:19:42  -5.45  -3.22   -47.669782    2               +1.8255
iter:  21  21:19:45  -4.89  -3.07   -47.671262    2               +1.8055
iter:  22  21:19:47  -5.96  -3.02   -47.671866    2               +1.7942
iter:  23  21:19:49  -4.92  -3.05   -47.670408    2               +1.8145
iter:  24  21:19:51  -4.90  -3.37   -47.671448    2               +1.8031
iter:  25  21:19:53  -4.23  -3.40   -47.675008    2               +1.7445
iter:  26  21:19:56  -4.82  -3.36   -47.675681    2               +1.7265
iter:  27  21:19:58  -4.56  -3.40   -47.674204    2               +1.7469
iter:  28  21:20:00  -5.73  -3.35   -47.674030    2               +1.7516
iter:  29  21:20:02  -6.32  -3.32   -47.674098    2               +1.7514
iter:  30  21:20:05  -3.69  -3.31   -47.679426    2               +1.6514
iter:  31  21:20:07  -4.10  -3.41   -47.679383    1               +1.6429
iter:  32  21:20:09  -5.49  -3.36   -47.679729    2               +1.6322
iter:  33  21:20:11  -5.07  -3.39   -47.679088    2               +1.6430
iter:  34  21:20:13  -6.04  -3.29   -47.678540    2               +1.6547
iter:  35  21:20:16  -5.18  -3.36   -47.677349    2               +1.6785
iter:  36  21:20:18  -4.08  -3.26   -47.679845    2               +1.6337
iter:  37  21:20:20  -5.37  -3.48   -47.681013    2               +1.6022
iter:  38  21:20:22  -4.54  -3.49   -47.683244    2               +1.5410
iter:  39  21:20:25  -4.36  -3.54   -47.685843    2               +1.4525
iter:  40  21:20:27  -4.55  -3.60   -47.686776    2               +1.4121
iter:  41  21:20:29  -5.11  -3.62   -47.687784    2               +1.3683
iter:  42  21:20:31  -5.08  -3.66   -47.688118    2               +1.3486
iter:  43  21:20:33  -5.36  -3.72   -47.688661    2               +1.3215
iter:  44  21:20:36  -5.50  -3.82   -47.688866    2               +1.3074
iter:  45  21:20:38  -4.94  -3.80   -47.689653    2               +1.2718
iter:  46  21:20:40  -5.29  -3.92   -47.690392    2               +1.2334
iter:  47  21:20:42  -4.91  -3.92   -47.690449    2               +1.2256
iter:  48  21:20:44  -5.25  -3.86   -47.690207    2               +1.2329
iter:  49  21:20:47  -5.80  -3.62   -47.690321    2               +1.2286
iter:  50  21:20:49  -6.89  -3.64   -47.690323    2               +1.2278
iter:  51  21:20:51  -5.87  -3.64   -47.690121    2               +1.2360
iter:  52  21:20:53  -4.32  -3.63   -47.691142    2               +1.1901
iter:  53  21:20:55  -5.22  -3.85   -47.691491    2               +1.1682
iter:  54  21:20:58  -4.36  -3.81   -47.690728    2               +1.1987
iter:  55  21:21:00  -5.47  -3.68   -47.690468    2               +1.2145
iter:  56  21:21:02  -5.69  -3.58   -47.690010    2               +1.2364
iter:  57  21:21:04  -4.89  -3.65   -47.690340    2               +1.2277
iter:  58  21:21:07  -4.82  -3.64   -47.691021    2               +1.1950
iter:  59  21:21:09  -4.45  -3.79   -47.690473    2               +1.2148
iter:  60  21:21:11  -4.90  -3.68   -47.690876    2               +1.1997
iter:  61  21:21:13  -4.86  -3.70   -47.691587    2               +1.1624
iter:  62  21:21:15  -5.50  -3.79   -47.692043    2               +1.1346
iter:  63  21:21:18  -4.43  -3.76   -47.691461    2               +1.1574
[...]
iter: 203  21:26:27  -4.88  -4.38   -47.699359    2               +0.4849
iter: 204  21:26:29  -5.40  -4.97   -47.699508    2               +0.4691
iter: 205  21:26:31  -5.31  -4.85   -47.699495    2               +0.4708
iter: 206  21:26:33  -5.86  -4.55   -47.699413    2               +0.4793
iter: 207  21:26:35  -5.00  -4.39   -47.699578    2               +0.4613
iter: 208  21:26:38  -6.11  -4.69   -47.699713    2               +0.4457
iter: 209  21:26:40  -5.96  -4.62   -47.699860    2               +0.4272
iter: 210  21:26:42  -5.96  -4.83   -47.699962    2               +0.4147
iter: 211  21:26:44  -5.28  -4.94   -47.699912    2               +0.4209
iter: 212  21:26:46  -6.26  -4.52   -47.699832    2               +0.4298
iter: 213  21:26:49  -4.98  -4.46   -47.699991    2               +0.4116
iter: 214  21:26:51  -5.85  -4.69   -47.700049    2               +0.4050
iter: 215  21:26:53  -6.63  -4.55   -47.700107    2               +0.3974
iter: 216  21:26:55  -5.92  -4.63   -47.700094    2               +0.3987
iter: 217  21:26:57  -7.42  -4.53   -47.700098    1               +0.3982

Converged after 217 iterations.

Dipole moment: (0.003621, 0.003621, -0.000097) |e|*Ang

Total magnetic moment: 0.398232
Local magnetic moments:
   0 Fe 0.227633
   1 Fe 0.227470
   2 Si -0.002864
   3 Si -0.002865
   4 Si -0.002864
   5 Si -0.002865
   6 Si 0.001490
   7 Si 0.001487

Energy contributions relative to reference atoms: (reference = -116556.974701)

Kinetic:        +60.955220
Potential:      -41.724490
External:        +0.000000
XC:             -66.825480
Entropy (-ST):   -0.174265
Local:           -0.018215
Free energy:    -47.787231
Extrapolated:   -47.700098

Spin contamination: 0.062547 electrons
Fermi level: 10.75894

Warning: Showing only first 2 kpts
                      Up                     Down
 Kpt  Band  Eigenvalues  Occupancy  Eigenvalues  Occupancy
  0    18     10.02438    0.12492     10.17928    0.12462
  0    19     10.76452    0.06076     10.92375    0.02017
  0    20     10.99176    0.01110     11.09322    0.00427
  0    21     11.13243    0.00291     11.22678    0.00115

  1    18     10.10694    0.06241     10.25814    0.06208
  1    19     10.24952    0.06212     10.41724    0.06051
  1    20     10.62937    0.04907     10.75524    0.03183
  1    21     11.01131    0.00464     11.13897    0.00137

Forces in eV/Ang:
  0 Fe   -0.00620   -0.00620   -0.00020
  1 Fe   -0.00371   -0.00371    0.00387
  2 Si    0.00356    0.00087    0.00127
  3 Si    0.00722   -0.00164    0.00050
  4 Si    0.00087    0.00356    0.00127
  5 Si   -0.00164    0.00722    0.00050
  6 Si    0.00086    0.00086   -0.00151
  7 Si   -0.00095   -0.00095   -0.00569

Stress tensor:
    -0.017079     0.041324     0.007875
     0.041324    -0.017079     0.007875
     0.007875     0.007875    -0.091489
Writing to fesi_8atoms_id11.gpw (mode='')

System changes: positions, cell

Initialize ...

Fe-setup:
  name: Iron
  id: 37abbd8d6c3c35915a9b583b742da910
  Z: 26
  valence: 8
  core: 18
  charge: 0.0
  file: /home/davidkl/gpaw-setups-0.9.20000/Fe.PBE.gz
  cutoffs: 1.06(comp), 2.06(filt), 2.67(core), lmax=2
  valence states:
                energy  radius
    4s(2.00)    -5.291   1.164
    4p(0.00)    -1.326   1.058
    3d(6.00)    -7.505   1.058
    *s          21.920   1.164
    *p          25.885   1.058
    *d          19.706   1.058

[...]

Si-setup:
  name: Silicon
  id: ee77bee481871cc2cb65ac61239ccafa
  Z: 14
  valence: 4
  core: 10
  charge: 0.0
  file: /home/davidkl/gpaw-setups-0.9.20000/Si.PBE.gz
  cutoffs: 1.06(comp), 1.86(filt), 2.06(core), lmax=2
  valence states:
                energy  radius
    3s(2.00)   -10.812   1.058
    3p(2.00)    -4.081   1.058
    *s          16.399   1.058
    *p          23.130   1.058
    *d           0.000   1.058

  Using partial waves for Si as LCAO basis

Reference energy: -116556.974701

Spin-polarized calculation.
Magnetic moment:  4.400000

Occupation numbers:
  Fermi-Dirac: width=0.1000 eV

Convergence criteria:
  Maximum total energy change: 0.0005 eV / electron
  Maximum integral of absolute density change: 0.0001 electrons
  Maximum integral of absolute eigenstate change: 4e-08 eV^2
  Maximum number of iterations: 333

Symmetries present (total): 2

  ( 1  0  0)  ( 0  1  0)
  ( 0  1  0)  ( 1  0  0)
  ( 0  0  1)  ( 0  0  1)

32 k-points: 4 x 4 x 2 Monkhorst-Pack grid
10 k-points in the irreducible part of the Brillouin zone
       k-points in crystal coordinates                weights
   0:     0.12500000   -0.12500000    0.25000000          4/32
   1:     0.12500000    0.12500000   -0.25000000          2/32
   2:     0.12500000    0.12500000    0.25000000          2/32
   3:     0.37500000   -0.37500000    0.25000000          4/32
   4:     0.37500000   -0.12500000   -0.25000000          4/32
   5:     0.37500000   -0.12500000    0.25000000          4/32
   6:     0.37500000    0.12500000   -0.25000000          4/32
   7:     0.37500000    0.12500000    0.25000000          4/32
   8:     0.37500000    0.37500000   -0.25000000          2/32
   9:     0.37500000    0.37500000    0.25000000          2/32