User:   rasmus@AsusN550
Date:   Thu Jan  3 11:17:44 2019
Arch:   x86_64
Pid:    4451
Python: 3.6.3
gpaw:   /home/rasmus/anaconda3/lib/python3.6/site-packages/gpaw
_gpaw:  /home/rasmus/anaconda3/lib/python3.6/site-packages/
        _gpaw.cpython-36m-x86_64-linux-gnu.so
ase:    /home/rasmus/anaconda3/lib/python3.6/site-packages/ase (version 3.17.0)
numpy:  /home/rasmus/.local/lib/python3.6/site-packages/numpy (version 1.15.1)
scipy:  /home/rasmus/.local/lib/python3.6/site-packages/scipy (version 1.1.0)
units:  Angstrom and eV
cores:  1

Input parameters:
  kpts: {density: 1.37,
         even: True}
  mode: {ecut: 600.0,
         name: pw}
  nbands: -100
  occupations: {name: fermi-dirac,
                width: 0.1}
  spinpol: True
  xc: PBE

System changes: positions, numbers, cell, pbc, initial_charges, initial_magmoms

Initialize ...

Fe-setup:
  name: Iron
  id: 37abbd8d6c3c35915a9b583b742da910
  Z: 26
  valence: 8
  core: 18
  charge: 0.0
  file: /usr/share/gpaw-setups/Fe.PBE.gz
  cutoffs: 1.06(comp), 2.06(filt), 2.67(core), lmax=2
  valence states:
                energy  radius
    4s(2.00)    -5.291   1.164
    4p(0.00)    -1.326   1.058
    3d(6.00)    -7.505   1.058
    *s          21.920   1.164
    *p          25.885   1.058
    *d          19.706   1.058

  Using partial waves for Fe as LCAO basis

Si-setup:
  name: Silicon
  id: ee77bee481871cc2cb65ac61239ccafa
  Z: 14
  valence: 4
  core: 10
  charge: 0.0
  file: /usr/share/gpaw-setups/Si.PBE.gz
  cutoffs: 1.06(comp), 1.86(filt), 2.06(core), lmax=2
  valence states:
                energy  radius
    3s(2.00)   -10.812   1.058
    3p(2.00)    -4.081   1.058
    *s          16.399   1.058
    *p          23.130   1.058
    *d           0.000   1.058

[...]

Reference energy: -143290.085051

Spin-polarized calculation.
Magnetic moment: 6.600000

Occupation numbers:
  Fermi-Dirac: width=0.1000 eV

Convergence criteria:
  Maximum total energy change: 0.0005 eV / electron
  Maximum integral of absolute density change: 0.0001 electrons
  Maximum integral of absolute eigenstate change: 4e-08 eV^2
  Maximum number of iterations: 333

Symmetries present (total): 2

  ( 1  0  0)  ( 1  0  0)
  ( 0  1  0)  ( 0  0  1)
  ( 0  0  1)  ( 0  1  0)

64 k-points: 4 x 4 x 4 Monkhorst-Pack grid
20 k-points in the irreducible part of the Brillouin zone
       k-points in crystal coordinates                weights
   0:     0.12500000   -0.37500000   -0.37500000          2/64
   1:     0.12500000   -0.12500000   -0.37500000          4/64
   2:     0.12500000   -0.12500000   -0.12500000          2/64
   3:     0.12500000    0.12500000   -0.37500000          4/64
   4:     0.12500000    0.12500000   -0.12500000          4/64
   5:     0.12500000    0.12500000    0.12500000          2/64
   6:     0.12500000    0.37500000   -0.37500000          4/64
   7:     0.12500000    0.37500000   -0.12500000          4/64
   8:     0.12500000    0.37500000    0.12500000          4/64
   9:     0.12500000    0.37500000    0.37500000          2/64
          ...
  19:     0.37500000    0.37500000    0.37500000          2/64

Wave functions: Plane wave expansion
  Cutoff energy: 600.000 eV
  Number of coefficients (min, max): 3150, 3186
  Pulay-stress correction: 0.000000 eV/Ang^3 (de/decut=0.000000)
  Using FFTW library
  ScaLapack parameters: grid=1x1, blocksize=None

Eigensolver
   Davidson(niter=1, smin=None, normalize=True)

Densities:
  Coarse grid: 21*24*24 grid
  Fine grid: 42*48*48 grid
  Total Charge: 0.000000

Density mixing:
  Method: sum
  Backend: pulay
  Linear mixing parameter: 0.05
  Mixing with 5 old densities
  Damping of long wave oscillations: 50

Hamiltonian:
  XC and Coulomb potentials evaluated on a 42*48*48 grid
  Using the PBE Exchange-Correlation functional

Total number of cores used: 1

Number of atoms: 8
Number of atomic orbitals: 47
Number of bands in calculation: 125
Bands to converge: occupied states only
Number of valence electrons: 44

... initialized

Initializing position-dependent things.

Density initialized from atomic densities
Creating initial wave functions:
  47 bands from LCAO basis set
  78 bands from random numbers

            Si
         Si       Si
              Si
                Fe
            Fe       Si
                  Fe

Positions:
   0 Fe    -0.000007   -0.000011   -0.000011    ( 0.0000,  0.0000,  2.2000)
   1 Fe     1.750184    1.321854   -1.321591    ( 0.0000,  0.0000,  2.2000)
   2 Fe     1.750184   -1.321591    1.321854    ( 0.0000,  0.0000,  2.2000)
   3 Si     3.500388    0.000230    0.000230    ( 0.0000,  0.0000,  0.0000)
   4 Si    -1.750003    1.285405    1.285405    ( 0.0000,  0.0000,  0.0000)
   5 Si     0.000179    2.607250   -0.036209    ( 0.0000,  0.0000,  0.0000)
   6 Si     0.000179   -0.036209    2.607250    ( 0.0000,  0.0000,  0.0000)
   7 Si     1.750370    1.285625    1.285625    ( 0.0000,  0.0000,  0.0000)

Unit cell:
           periodic     x           y           z      points  spacing
  1. axis:    yes   -3.500013    2.570800    2.570800    21     0.1731
  2. axis:    yes    3.500372   -2.643221    2.643685    24     0.1742
  3. axis:    yes    3.500372    2.643685   -2.643221    24     0.1742

  Lengths:   5.046595   5.121356   5.121356
  Angles:   93.766805 118.292820 118.292820

Effective grid spacing dv^(1/3) = 0.1989

                     log10-error:    total        iterations:
           time      wfs    density  energy       fermi  poisson  magmom
iter:   1  11:18:55  +4.85   +inf   -53.495039    2               +4.1318
iter:   2  11:19:45  +0.09   +inf   -53.905713    3               +4.1193
iter:   3  11:20:36  -1.18   +inf   -53.925621    2               +4.1189
iter:   4  11:21:29  -1.73  -1.13   -53.404283    3               +4.0872
iter:   5  11:22:23  -1.66  -1.20   -53.237013    34              +4.4557
iter:   6  11:23:16  -1.19  -1.30   -53.206757    32              +4.3149
iter:   7  11:24:09  -1.48  -1.52   -53.296790    3               +4.1032
iter:   8  11:25:03  -2.48  -1.82   -53.317098    3               +4.1024
iter:   9  11:25:56  -2.15  -1.83   -53.316897    3               +3.8615
iter:  10  11:26:49  -2.91  -2.41   -53.306715    3               +3.7843
iter:  11  11:27:43  -3.97  -2.59   -53.308344    2               +3.7568
iter:  12  11:28:37  -3.61  -2.63   -53.324918    2               +3.6264
iter:  13  11:29:30  -4.00  -2.76   -53.325263    2               +3.5793
iter:  14  11:30:28  -4.72  -2.89   -53.327077    2               +3.5330
iter:  15  11:31:25  -3.94  -2.98   -53.337694    2               +3.4219
iter:  16  11:32:20  -4.20  -3.04   -53.338288    2               +3.4023
iter:  17  11:33:16  -5.07  -3.03   -53.337596    2               +3.4000
iter:  18  11:34:09  -4.93  -2.95   -53.335233    2               +3.4273
iter:  19  11:35:03  -4.52  -2.86   -53.338429    2               +3.3927
iter:  20  11:35:57  -5.68  -2.89   -53.339251    2               +3.3792
iter:  21  11:36:55  -4.39  -2.88   -53.344070    2               +3.3149
iter:  22  11:37:57  -5.06  -3.09   -53.347427    2               +3.2666
iter:  23  11:38:52  -4.33  -3.12   -53.354442    2               +3.1670
iter:  24  11:39:46  -4.68  -3.18   -53.360433    3               +3.0696
iter:  25  11:40:40  -4.19  -3.15   -53.359860    2               +3.0658
iter:  26  11:41:35  -5.66  -3.06   -53.360429    2               +3.0557
iter:  27  11:42:28  -5.17  -3.08   -53.359276    2               +3.0651
iter:  28  11:43:22  -5.16  -2.95   -53.360345    2               +3.0562
iter:  29  11:44:16  -5.09  -3.08   -53.362453    3               +3.0230
iter:  30  11:45:10  -5.32  -2.91   -53.362996    3               +3.0157
iter:  31  11:46:04  -3.84  -3.15   -53.371269    2               +2.8914
iter:  32  11:46:59  -3.06  -3.21   -53.389145    3               +2.5222
iter:  33  11:47:53  -3.27  -3.29   -53.393361    2               +2.4465
iter:  34  11:48:47  -3.10  -3.21   -53.382413    2               +2.6324
iter:  35  11:49:42  -3.07  -2.95   -53.391906    2               +2.4832
iter:  36  11:50:35  -4.59  -3.26   -53.395285    2               +2.3960
iter:  37  11:51:28  -3.21  -3.23   -53.386122    2               +2.5623
iter:  38  11:52:22  -2.77  -3.07   -53.398990    2               +2.2799
iter:  39  11:53:15  -3.56  -3.32   -53.400938    2               +2.2358
iter:  40  11:54:08  -3.03  -3.30   -53.389408    2               +2.4688
iter:  41  11:55:01  -2.87  -2.96   -53.399303    2               +2.2911
iter:  42  11:55:54  -4.42  -3.46   -53.402635    2               +2.1824
iter:  43  11:56:48  -4.11  -3.32   -53.402752    2               +2.1771
iter:  44  11:57:41  -4.80  -3.39   -53.402035    2               +2.1940
iter:  45  11:58:34  -3.97  -3.19   -53.404470    2               +2.1139
iter:  46  11:59:28  -3.49  -3.42   -53.400502    2               +2.2241
iter:  47  12:00:21  -3.23  -3.20   -53.405507    2               +2.0722
iter:  48  12:01:14  -4.25  -3.54   -53.406543    2               +2.0295
iter:  49  12:02:07  -3.38  -3.51   -53.401654    2               +2.1724
iter:  50  12:03:01  -3.46  -3.14   -53.404704    2               +2.1061
iter:  51  12:03:54  -4.08  -3.43   -53.403091    2               +2.1525
iter:  52  12:04:47  -5.26  -3.26   -53.402910    2               +2.1646
iter:  53  12:05:40  -3.67  -3.30   -53.406240    2               +2.0472
iter:  54  12:06:34  -4.44  -3.73   -53.408385    2               +1.9384
iter:  55  12:07:27  -4.32  -3.91   -53.409064    2               +1.9066
iter:  56  12:08:20  -4.89  -3.92   -53.409081    2               +1.9041
iter:  57  12:09:14  -4.68  -3.85   -53.408465    2               +1.9405
iter:  58  12:10:07  -4.71  -3.53   -53.408861    2               +1.9254
iter:  59  12:11:00  -5.75  -3.62   -53.409172    2               +1.9073
iter:  60  12:11:53  -5.21  -3.68   -53.408997    2               +1.9153
iter:  61  12:12:47  -4.67  -3.62   -53.409618    2               +1.8795
iter:  62  12:13:40  -5.62  -3.79   -53.409897    2               +1.8612
iter:  63  12:14:33  -4.84  -3.78   -53.409581    2               +1.8777
[...]
iter: 119  13:09:59  -5.44  -4.87   -53.411959    2               +1.6473
iter: 120  13:10:55  -6.40  -4.61   -53.411942    2               +1.6542
iter: 121  13:11:50  -6.26  -4.47   -53.411947    2               +1.6532
iter: 122  13:12:44  -7.21  -4.55   -53.411939    1               +1.6546
iter: 123  13:13:38  -5.38  -4.53   -53.411989    2               +1.6409
iter: 124  13:14:33  -5.46  -4.82   -53.412046    2               +1.6200
iter: 125  13:15:28  -5.07  -4.75   -53.412062    2               +1.6235
iter: 126  13:16:23  -4.59  -4.74   -53.411860    2               +1.6605
iter: 127  13:17:20  -4.83  -4.20   -53.411920    2               +1.6614
iter: 128  13:18:31  -6.39  -4.41   -53.411886    2               +1.6641
iter: 129  13:19:33  -4.75  -4.45   -53.412000    2               +1.6396
iter: 130  13:20:29  -5.48  -4.92   -53.412051    2               +1.6324
iter: 131  13:21:32  -4.98  -4.73   -53.411977    2               +1.6475
iter: 132  13:22:41  -5.27  -4.40   -53.412019    2               +1.6430
iter: 133  13:23:37  -7.41  -4.58   -53.412033    2               +1.6406

Converged after 133 iterations.

Dipole moment: (0.000117, -0.000334, -0.000334) |e|*Ang

Total magnetic moment: (0.000000, 0.000000, 1.642527)
Local magnetic moments:
   0 Fe ( 0.000000,  0.000000,  1.139915)
   1 Fe ( 0.000000,  0.000000,  0.289962)
   2 Fe ( 0.000000,  0.000000,  0.289962)
   3 Si ( 0.000000,  0.000000, -0.008043)
   4 Si ( 0.000000,  0.000000, -0.012119)
   5 Si ( 0.000000,  0.000000, -0.011260)
   6 Si ( 0.000000,  0.000000, -0.011260)
   7 Si ( 0.000000,  0.000000, -0.012013)

Energy contributions relative to reference atoms: (reference = -143290.085051)

Kinetic:        +36.766157
Potential:      -21.077298
External:        +0.000000
XC:             -69.080345
Entropy (-ST):   -0.241583
Local:           +0.100244
Free energy:    -53.532824
Extrapolated:   -53.412033

Spin contamination: 0.132954 electrons
Fermi level: 11.28550

Warning: Showing only first 2 kpts
                      Up                     Down
 Kpt  Band  Eigenvalues  Occupancy  Eigenvalues  Occupancy
  0    20     10.54660    0.03123     10.99321    0.02966
  0    21     10.70168    0.03116     11.09531    0.02719
  0    22     11.30936    0.01377     11.61754    0.00109
  0    23     11.40438    0.00730     11.64844    0.00081

  1    20     10.56611    0.06245     11.21480    0.04186
  1    21     10.75271    0.06220     11.34212    0.02263
  1    22     10.92254    0.06088     11.40322    0.01472
  1    23     11.71722    0.00082     12.06181    0.00003

Forces in eV/Ang:
  0 Fe   -0.00002   -0.00010   -0.00010
  1 Fe    0.00002    0.00008    0.00007
  2 Fe    0.00002    0.00007    0.00008
  3 Si    0.00000   -0.00003   -0.00003
  4 Si    0.00001   -0.00001   -0.00001
  5 Si    0.00000   -0.00001    0.00001
  6 Si    0.00000    0.00001   -0.00001
  7 Si   -0.00004   -0.00001   -0.00001

Stress tensor:
    -0.006229    -0.000053    -0.000053
    -0.000053     0.051461     0.033603
    -0.000053     0.033603     0.051461
Writing to fesi_8atoms_id10.gpw (mode='')

System changes: positions, cell

[...]

Wave functions: Plane wave expansion
  Cutoff energy: 600.000 eV
  Number of coefficients (min, max): 3150, 3182
  Pulay-stress correction: 0.000000 eV/Ang^3 (de/decut=0.000000)
  Using FFTW library
  ScaLapack parameters: grid=1x1, blocksize=None

Eigensolver
   Davidson(niter=1, smin=None, normalize=True)

Densities:
  Coarse grid: 21*24*24 grid
  Fine grid: 42*48*48 grid
  Total Charge: 0.000000

Density mixing:
  Method: sum
  Backend: pulay
  Linear mixing parameter: 0.05
  Mixing with 5 old densities
  Damping of long wave oscillations: 50

Hamiltonian:
  XC and Coulomb potentials evaluated on a 42*48*48 grid
  Using the PBE Exchange-Correlation functional

Total number of cores used: 1

Number of atoms: 8
Number of atomic orbitals: 47
Number of bands in calculation: 125
Bands to converge: occupied states only
Number of valence electrons: 44

... initialized

Initializing position-dependent things.

Density initialized from atomic densities
Creating initial wave functions:
  47 bands from LCAO basis set
  78 bands from random numbers

            Si
         Si       Si
              Si
                Fe
            Fe       Si
                  Fe

Positions:
   0 Fe    -0.000007   -0.000012   -0.000012    ( 0.0000,  0.0000,  2.2000)
   1 Fe     1.750416    1.321355   -1.321087    ( 0.0000,  0.0000,  2.2000)
   2 Fe     1.750416   -1.321087    1.321355    ( 0.0000,  0.0000,  2.2000)
   3 Si     3.500851    0.000233    0.000233    ( 0.0000,  0.0000,  0.0000)
   4 Si    -1.750231    1.283081    1.283081    ( 0.0000,  0.0000,  0.0000)
   5 Si     0.000182    2.604425   -0.038030    ( 0.0000,  0.0000,  0.0000)
   6 Si     0.000182   -0.038030    2.604425    ( 0.0000,  0.0000,  0.0000)
   7 Si     1.750604    1.283304    1.283304    ( 0.0000,  0.0000,  0.0000)

Unit cell:
           periodic     x           y           z      points  spacing
  1. axis:    yes   -3.500470    2.566151    2.566151    21     0.1728
  2. axis:    yes    3.500835   -2.642215    2.642686    24     0.1741
  3. axis:    yes    3.500835    2.642686   -2.642215    24     0.1741

  Lengths:   5.042178   5.120638   5.120638
  Angles:   93.737550 118.332255 118.332255

Effective grid spacing dv^(1/3) = 0.1987

                     log10-error:    total        iterations:
           time      wfs    density  energy       fermi  poisson  magmom
iter:   1  13:26:17  +4.85   +inf   -53.492282    32              +4.1136
iter:   2  13:27:12  +0.09   +inf   -53.902620    3               +4.1009
iter:   3  13:28:10  -1.18   +inf   -53.922505    2               +4.1005
iter:   4  13:29:11  -1.73  -1.13   -53.406334    3               +4.0604
iter:   5  13:30:13  -1.67  -1.20   -53.240793    34              +4.4208
iter:   6  13:31:16  -1.19  -1.30   -53.209072    34              +4.2773
iter:   7  13:32:15  -1.48  -1.52   -53.302912    3               +4.0562
iter:   8  13:33:13  -2.48  -1.82   -53.324947    3               +4.0496
iter:   9  13:34:16  -2.16  -1.83   -53.324654    3               +3.8017
iter:  10  13:35:18  -2.93  -2.42   -53.316090    3               +3.7206
iter:  11  13:36:19  -3.99  -2.58   -53.317869    2               +3.6919
iter:  12  13:37:15  -3.59  -2.62   -53.335394    2               +3.5557
iter:  13  13:38:12  -4.01  -2.76   -53.336194    2               +3.5071
iter:  14  13:39:11  -4.64  -2.89   -53.339037    2               +3.4493
iter:  15  13:40:08  -4.08  -2.97   -53.348722    2               +3.3533
iter:  16  13:41:09  -4.31  -3.03   -53.349395    2               +3.3349
iter:  17  13:42:09  -5.17  -3.02   -53.349031    2               +3.3332
iter:  18  13:43:12  -4.84  -2.95   -53.346273    2               +3.3640
iter:  19  13:44:11  -4.26  -2.85   -53.351029    2               +3.3139
iter:  20  13:45:07  -5.37  -2.92   -53.352639    2               +3.2906
iter:  21  13:46:01  -4.41  -2.91   -53.358083    2               +3.2203
iter:  22  13:46:55  -4.63  -3.09   -53.364141    2               +3.1401
iter:  23  13:47:48  -4.06  -3.15   -53.374278    2               +2.9967
iter:  24  13:48:43  -4.23  -3.20   -53.377222    2               +2.9433
iter:  25  13:49:36  -4.06  -3.17   -53.373528    2               +2.9814
iter:  26  13:50:30  -4.41  -2.99   -53.376523    2               +2.9489
iter:  27  13:51:23  -4.46  -3.14   -53.373565    2               +2.9834
iter:  28  13:52:17  -3.56  -3.12   -53.383722    3               +2.8477
iter:  29  13:53:10  -3.40  -3.16   -53.375505    2               +2.9448
iter:  30  13:54:04  -3.53  -3.06   -53.384487    2               +2.8325
iter:  31  13:54:57  -3.25  -3.12   -53.400735    3               +2.5417
iter:  32  13:55:51  -3.62  -3.29   -53.405482    2               +2.4462
iter:  33  13:56:44  -3.93  -3.20   -53.404481    2               +2.4577
iter:  34  13:57:38  -5.38  -3.14   -53.403987    2               +2.4664
iter:  35  13:58:31  -5.06  -3.13   -53.405126    2               +2.4456
iter:  36  13:59:25  -4.08  -3.12   -53.400900    2               +2.5170
iter:  37  14:00:18  -2.73  -3.05   -53.415363    2               +2.1646
iter:  38  14:01:11  -3.19  -3.33   -53.417161    2               +2.1467
iter:  39  14:02:04  -3.83  -3.32   -53.414189    2               +2.2198
iter:  40  14:02:58  -4.60  -3.23   -53.411165    2               +2.2979
iter:  41  14:03:51  -3.47  -3.16   -53.416080    2               +2.1852
iter:  42  14:04:44  -3.56  -3.34   -53.412339    2               +2.2660
iter:  43  14:05:38  -3.26  -3.15   -53.418742    2               +2.1053
iter:  44  14:06:31  -4.08  -3.44   -53.419846    2               +2.0687
iter:  45  14:07:24  -4.26  -3.40   -53.418671    2               +2.0975
iter:  46  14:08:18  -4.76  -3.28   -53.416972    2               +2.1483
iter:  47  14:09:11  -5.30  -3.27   -53.416403    2               +2.1709
iter:  48  14:10:05  -5.28  -3.28   -53.416601    2               +2.1696
iter:  49  14:10:58  -3.23  -3.31   -53.422120    2               +1.9520
iter:  50  14:11:51  -3.19  -3.67   -53.420599    2               +2.0283
iter:  51  14:12:45  -3.30  -3.32   -53.424039    2               +1.8609
iter:  52  14:13:38  -3.93  -3.88   -53.424705    2               +1.8372
iter:  53  14:14:31  -5.26  -3.77   -53.424979    2               +1.8177
iter:  54  14:15:25  -5.68  -3.79   -53.425014    2               +1.8106
iter:  55  14:16:18  -5.09  -3.72   -53.425460    2               +1.7908
iter:  56  14:17:12  -5.36  -3.93   -53.425473    2               +1.7908
iter:  57  14:18:05  -4.95  -3.86   -53.425823    2               +1.7604
iter:  58  14:18:58  -4.47  -3.99   -53.425393    2               +1.7907
iter:  59  14:19:52  -4.51  -3.80   -53.425879    2               +1.7613
iter:  60  14:20:46  -5.87  -4.01   -53.426079    2               +1.7422
iter:  61  14:21:39  -4.78  -4.05   -53.425831    2               +1.7636
iter:  62  14:22:33  -4.37  -3.83   -53.426300    2               +1.7178
iter:  63  14:23:26  -4.84  -4.16   -53.426318    2               +1.7205
iter:  64  14:24:19  -4.89  -4.08   -53.426591    2               +1.6884
iter:  65  14:25:14  -5.41  -4.26   -53.426705    2               +1.6802
iter:  66  14:26:11  -5.66  -4.26   -53.426861    2               +1.6621
iter:  67  14:27:06  -6.12  -4.38   -53.426954    2               +1.6510
iter:  68  14:28:03  -6.12  -4.46   -53.427052    2               +1.6377
iter:  69  14:28:58  -5.74  -4.48   -53.427079    1               +1.6379
iter:  70  14:29:52  -5.95  -4.50   -53.427020    2               +1.6431
iter:  71  14:30:47  -5.74  -4.47   -53.427085    2               +1.6374
iter:  72  14:31:44  -6.15  -4.51   -53.427066    2               +1.6397
iter:  73  14:32:41  -5.94  -4.47   -53.427129    2               +1.6332
iter:  74  14:33:43  -6.36  -4.53   -53.427125    2               +1.6321
iter:  75  14:34:41  -7.82  -4.52   -53.427128    1               +1.6316

Converged after 75 iterations.

Dipole moment: (0.000131, -0.000338, -0.000338) |e|*Ang

Total magnetic moment: (0.000000, 0.000000, 1.638449)
Local magnetic moments:
   0 Fe ( 0.000000,  0.000000,  1.089619)
   1 Fe ( 0.000000,  0.000000,  0.314027)
   2 Fe ( 0.000000,  0.000000,  0.314027)
   3 Si ( 0.000000,  0.000000, -0.007940)
   4 Si ( 0.000000,  0.000000, -0.012053)
   5 Si ( 0.000000,  0.000000, -0.011283)
   6 Si ( 0.000000,  0.000000, -0.011283)
   7 Si ( 0.000000,  0.000000, -0.011955)

Energy contributions relative to reference atoms: (reference = -143290.085051)

Kinetic:        +37.249709
Potential:      -21.416948
External:        +0.000000
XC:             -69.237172
Entropy (-ST):   -0.240943
Local:           +0.097754
Free energy:    -53.547600
Extrapolated:   -53.427128

Spin contamination: 0.130624 electrons
Fermi level: 11.31077

Warning: Showing only first 2 kpts
                      Up                     Down
 Kpt  Band  Eigenvalues  Occupancy  Eigenvalues  Occupancy
  0    20     10.57237    0.03123     11.03110    0.02945
  0    21     10.71954    0.03117     11.12167    0.02715
  0    22     11.33341    0.01386     11.65075    0.00101
  0    23     11.42656    0.00747     11.67809    0.00077

  1    20     10.59416    0.06245     11.23292    0.04284
  1    21     10.77693    0.06220     11.37152    0.02204
  1    22     10.94744    0.06089     11.42523    0.01509
  1    23     11.74688    0.00079     12.09178    0.00003

Forces in eV/Ang:
  0 Fe   -0.00001   -0.00011   -0.00011
  1 Fe    0.00002    0.00009    0.00007
  2 Fe    0.00002    0.00007    0.00009
  3 Si    0.00000   -0.00003   -0.00003
  4 Si    0.00000   -0.00001   -0.00001
  5 Si    0.00000   -0.00001    0.00000
  6 Si    0.00000    0.00000   -0.00001
  7 Si   -0.00003   -0.00001   -0.00001

Stress tensor:
    -0.007561    -0.000054    -0.000054
    -0.000054     0.049735     0.033200
    -0.000054     0.033200     0.049735
Writing to fesi_8atoms_id10.gpw (mode='')

System changes: positions, cell

Initialize ...

Fe-setup:
  name: Iron
  id: 37abbd8d6c3c35915a9b583b742da910
  Z: 26
  valence: 8
  core: 18
  charge: 0.0
  file: /usr/share/gpaw-setups/Fe.PBE.gz
  cutoffs: 1.06(comp), 2.06(filt), 2.67(core), lmax=2
  valence states:
                energy  radius
    4s(2.00)    -5.291   1.164
    4p(0.00)    -1.326   1.058
    3d(6.00)    -7.505   1.058
    *s          21.920   1.164
    *p          25.885   1.058
    *d          19.706   1.058

[...]

Si-setup:
  name: Silicon
  id: ee77bee481871cc2cb65ac61239ccafa
  Z: 14
  valence: 4
  core: 10
  charge: 0.0
  file: /usr/share/gpaw-setups/Si.PBE.gz
  cutoffs: 1.06(comp), 1.86(filt), 2.06(core), lmax=2
  valence states:
                energy  radius
    3s(2.00)   -10.812   1.058
    3p(2.00)    -4.081   1.058
    *s          16.399   1.058
    *p          23.130   1.058
    *d           0.000   1.058

  Using partial waves for Si as LCAO basis

Reference energy: -143290.085051

Spin-polarized calculation.
Magnetic moment: 6.600000

Occupation numbers:
  Fermi-Dirac: width=0.1000 eV

Convergence criteria:
  Maximum total energy change: 0.0005 eV / electron
  Maximum integral of absolute density change: 0.0001 electrons
  Maximum integral of absolute eigenstate change: 4e-08 eV^2
  Maximum number of iterations: 333

Symmetries present (total): 2

  ( 1  0  0)  ( 1  0  0)
  ( 0  1  0)  ( 0  0  1)
  ( 0  0  1)  ( 0  1  0)

64 k-points: 4 x 4 x 4 Monkhorst-Pack grid
20 k-points in the irreducible part of the Brillouin zone
       k-points in crystal coordinates                weights
   0:     0.12500000   -0.37500000   -0.37500000          2/64
   1:     0.12500000   -0.12500000   -0.37500000          4/64
   2:     0.12500000   -0.12500000   -0.12500000          2/64
   3:     0.12500000    0.12500000   -0.37500000          4/64
   4:     0.12500000    0.12500000   -0.12500000          4/64
   5:     0.12500000    0.12500000    0.12500000          2/64
   6:     0.12500000    0.37500000   -0.37500000          4/64
   7:     0.12500000    0.37500000   -0.12500000          4/64
   8:     0.12500000    0.37500000    0.12500000          4/64
   9:     0.12500000    0.37500000    0.37500000          2/64
          ...
  19:     0.37500000    0.37500000    0.37500000          2/64

Date: Thu Jan  3 14:36:09 2019